c description: Tseitin formula on , with even charge
c generator: CNFgen (0.9.0)
c copyright: (C) 2012-2020 Massimo Lauria <massimo.lauria@uniroma1.it>
c url: https://massimolauria.net/cnfgen
c
p cnf 20 140
1 2 3 4 -5 0
1 2 3 -4 5 0
1 2 -3 4 5 0
1 2 -3 -4 -5 0
1 -2 3 4 5 0
1 -2 3 -4 -5 0
1 -2 -3 4 -5 0
1 -2 -3 -4 5 0
-1 2 3 4 5 0
-1 2 3 -4 -5 0
-1 2 -3 4 -5 0
-1 2 -3 -4 5 0
-1 -2 3 4 -5 0
-1 -2 3 -4 5 0
-1 -2 -3 4 5 0
-1 -2 -3 -4 -5 0
1 6 7 8 -9 0
1 6 7 -8 9 0
1 6 -7 8 9 0
1 6 -7 -8 -9 0
1 -6 7 8 9 0
1 -6 7 -8 -9 0
1 -6 -7 8 -9 0
1 -6 -7 -8 9 0
-1 6 7 8 9 0
-1 6 7 -8 -9 0
-1 6 -7 8 -9 0
-1 6 -7 -8 9 0
-1 -6 7 8 -9 0
-1 -6 7 -8 9 0
-1 -6 -7 8 9 0
-1 -6 -7 -8 -9 0
2 10 -11 0
2 -10 11 0
-2 10 11 0
-2 -10 -11 0
3 6 12 -13 0
3 6 -12 13 0
3 -6 12 13 0
3 -6 -12 -13 0
-3 6 12 13 0
-3 6 -12 -13 0
-3 -6 12 -13 0
-3 -6 -12 13 0
7 14 15 -16 0
7 14 -15 16 0
7 -14 15 16 0
7 -14 -15 -16 0
-7 14 15 16 0
-7 14 -15 -16 0
-7 -14 15 -16 0
-7 -14 -15 16 0
17 -18 0
-17 18 0
4 8 14 17 -19 0
4 8 14 -17 19 0
4 8 -14 17 19 0
4 8 -14 -17 -19 0
4 -8 14 17 19 0
4 -8 14 -17 -19 0
4 -8 -14 17 -19 0
4 -8 -14 -17 19 0
-4 8 14 17 19 0
-4 8 14 -17 -19 0
-4 8 -14 17 -19 0
-4 8 -14 -17 19 0
-4 -8 14 17 -19 0
-4 -8 14 -17 19 0
-4 -8 -14 17 19 0
-4 -8 -14 -17 -19 0
12 -15 0
-12 15 0
5 9 10 16 18 19 -20 0
5 9 10 16 18 -19 20 0
5 9 10 16 -18 19 20 0
5 9 10 16 -18 -19 -20 0
5 9 10 -16 18 19 20 0
5 9 10 -16 18 -19 -20 0
5 9 10 -16 -18 19 -20 0
5 9 10 -16 -18 -19 20 0
5 9 -10 16 18 19 20 0
5 9 -10 16 18 -19 -20 0
5 9 -10 16 -18 19 -20 0
5 9 -10 16 -18 -19 20 0
5 9 -10 -16 18 19 -20 0
5 9 -10 -16 18 -19 20 0
5 9 -10 -16 -18 19 20 0
5 9 -10 -16 -18 -19 -20 0
5 -9 10 16 18 19 20 0
5 -9 10 16 18 -19 -20 0
5 -9 10 16 -18 19 -20 0
5 -9 10 16 -18 -19 20 0
5 -9 10 -16 18 19 -20 0
5 -9 10 -16 18 -19 20 0
5 -9 10 -16 -18 19 20 0
5 -9 10 -16 -18 -19 -20 0
5 -9 -10 16 18 19 -20 0
5 -9 -10 16 18 -19 20 0
5 -9 -10 16 -18 19 20 0
5 -9 -10 16 -18 -19 -20 0
5 -9 -10 -16 18 19 20 0
5 -9 -10 -16 18 -19 -20 0
5 -9 -10 -16 -18 19 -20 0
5 -9 -10 -16 -18 -19 20 0
-5 9 10 16 18 19 20 0
-5 9 10 16 18 -19 -20 0
-5 9 10 16 -18 19 -20 0
-5 9 10 16 -18 -19 20 0
-5 9 10 -16 18 19 -20 0
-5 9 10 -16 18 -19 20 0
-5 9 10 -16 -18 19 20 0
-5 9 10 -16 -18 -19 -20 0
-5 9 -10 16 18 19 -20 0
-5 9 -10 16 18 -19 20 0
-5 9 -10 16 -18 19 20 0
-5 9 -10 16 -18 -19 -20 0
-5 9 -10 -16 18 19 20 0
-5 9 -10 -16 18 -19 -20 0
-5 9 -10 -16 -18 19 -20 0
-5 9 -10 -16 -18 -19 20 0
-5 -9 10 16 18 19 -20 0
-5 -9 10 16 18 -19 20 0
-5 -9 10 16 -18 19 20 0
-5 -9 10 16 -18 -19 -20 0
-5 -9 10 -16 18 19 20 0
-5 -9 10 -16 18 -19 -20 0
-5 -9 10 -16 -18 19 -20 0
-5 -9 10 -16 -18 -19 20 0
-5 -9 -10 16 18 19 20 0
-5 -9 -10 16 18 -19 -20 0
-5 -9 -10 16 -18 19 -20 0
-5 -9 -10 16 -18 -19 20 0
-5 -9 -10 -16 18 19 -20 0
-5 -9 -10 -16 18 -19 20 0
-5 -9 -10 -16 -18 19 20 0
-5 -9 -10 -16 -18 -19 -20 0
11 13 -20 0
11 -13 20 0
-11 13 20 0
-11 -13 -20 0